100 3495
497 625 714 181 960 410 328 692 469 612 252 247 418 650 15 620 929 1042 234 553 545 495 165 969 874 170 747 707 785 384 838 281 940 47 279 60 62 594 792 432 263 737 595 224 524 811 362 492 340 578 379 426 107 1048 910 466 158 877 537 177 422 164 364 157 233 142 664 276 713 705 790 309 242 929 378 514 459 451 303 307 567 742 896 362 811 277 1 949 810 728 488 777 470 779 380 367 347 550 740 878 
556 709 687 132 961 434 298 716 490 515 352 300 513 581 25 581 906 969 150 479 578 544 121 919 825 105 735 736 882 328 742 356 952 110 201 66 25 613 825 351 188 778 523 270 620 891 302 482 404 641 395 441 50 965 877 408 150 971 537 91 505 171 388 187 304 61 585 247 713 770 714 406 251 896 380 481 375 388 293 275 546 766 855 282 770 186 44 965 823 700 409 853 449 832 437 406 398 465 689 821 
